
Gurobi 9.5.1 (linux64) logging started Fri Jul  1 12:37:33 2022

Set parameter LogFile to value "../results/logs/log_CA-HepPh_4_250_2022_07_01_12_37.log"
Gurobi Optimizer version 9.5.1 build v9.5.1rc2 (linux64)
Thread count: 8 physical cores, 8 logical processors, using up to 8 threads
Optimize a model with 53123 rows, 24012 columns and 169105 nonzeros
Model fingerprint: 0xfeddf9d7
Variable types: 0 continuous, 24012 integer (24012 binary)
Coefficient statistics:
  Matrix range     [1e+00, 4e+00]
  Objective range  [1e+00, 1e+00]
  Bounds range     [1e+00, 1e+00]
  RHS range        [1e+00, 2e+02]
Found heuristic solution: objective 6591.0000000
Presolve removed 51135 rows and 22474 columns
Presolve time: 0.07s
Presolved: 1988 rows, 1538 columns, 7714 nonzeros
Variable types: 0 continuous, 1538 integer (1533 binary)
Found heuristic solution: objective 6772.0000000

Root relaxation: objective 7.032448e+03, 687 iterations, 0.00 seconds (0.00 work units)

    Nodes    |    Current Node    |     Objective Bounds      |     Work
 Expl Unexpl |  Obj  Depth IntInf | Incumbent    BestBd   Gap | It/Node Time

     0     0 7032.44773    0  226 6772.00000 7032.44773  3.85%     -    0s
H    0     0                    6968.0000000 7032.44773  0.92%     -    0s
H    0     0                    6969.0000000 6982.71661  0.20%     -    0s
H    0     0                    6970.0000000 6982.71661  0.18%     -    0s
     0     0 6982.71661    0   69 6970.00000 6982.71661  0.18%     -    0s
H    0     0                    6971.0000000 6982.71661  0.17%     -    0s
H    0     0                    6974.0000000 6982.71661  0.12%     -    0s
H    0     0                    6977.0000000 6982.71661  0.08%     -    0s
     0     0 6981.70943    0   69 6977.00000 6981.70943  0.07%     -    0s
H    0     0                    6978.0000000 6981.70943  0.05%     -    0s
     0     0 infeasible    0      6978.00000 6978.00000  0.00%     -    0s

Cutting planes:
  Gomory: 84
  Cover: 14
  Clique: 2
  MIR: 51
  StrongCG: 3
  GUB cover: 119
  Zero half: 29
  RLT: 20

Explored 1 nodes (1110 simplex iterations) in 0.17 seconds (0.13 work units)
Thread count was 8 (of 8 available processors)

Solution count 9: 6978 6977 6974 ... 6591

Optimal solution found (tolerance 0.00e+00)
Best objective 6.978000000000e+03, best bound 6.978000000000e+03, gap 0.0000%
